outputs/r101.txt.out
filename: R101
Vehicles: 25, Capacity: 200
Total customers : 101
No of routes: 51
Route #1: 27
Route #2: 28 53 58
Route #3: 40 26
Route #4: 12 80
Route #5: 54
Route #6: 55 25
Route #7: 68 77
Route #8: 76 50 1
Route #9: 69 3
Route #10: 79
Route #11: 78 34
Route #12: 33 81
Route #13: 9
Route #14: 71 35
Route #15: 65 51
Route #16: 29 24
Route #17: 21 73
Route #18: 72 74
Route #19: 75 56 4
Route #20: 39 67
Route #21: 23 22
Route #22: 41 13
Route #23: 94
Route #24: 95 97
Route #25: 87
Route #26: 2 42 57
Route #27: 15 43
Route #28: 92 37 100
Route #29: 98
Route #30: 59 99 96
Route #31: 5 60
Route #32: 83 8
Route #33: 45 82 7
Route #34: 88
Route #35: 31 70
Route #36: 30 20
Route #37: 66
Route #38: 62 10
Route #39: 90 32
Route #40: 63 11 19 48
Route #41: 47
Route #42: 36 49
Route #43: 64 46
Route #44: 18
Route #45: 52 84 17 93
Route #46: 85
Route #47: 61
Route #48: 16 86
Route #49: 44 38
Route #50: 14 91
Route #51: 6 89
Cost 2922
